data;


param d:= 100;
param r:=5;
param p:=0.720000;
param M:=1000;
param U:=
         1         1       -8.112562e-01
         2         1       -4.037365e-01
         3         1       -2.678473e+00
         4         1        1.576695e+00
         5         1        9.057508e-01
         6         1        6.769772e-01
         7         1       -3.063982e-01
         8         1       -3.448761e-01
         9         1        4.935657e-01
        10         1       -2.637736e+00
        11         1       -5.360808e-01
        12         1        7.989959e-01
        13         1        1.075630e+00
        14         1       -1.352161e+00
        15         1        1.845991e+00
        16         1        1.118059e+00
        17         1       -1.996838e-01
        18         1        9.865967e-01
        19         1        8.906156e-01
        20         1       -4.645010e-01
        21         1        1.356104e+00
        22         1        1.243284e+00
        23         1        1.089818e+00
        24         1       -6.714823e-02
        25         1       -2.527184e-01
        26         1        8.459093e-01
        27         1       -2.347679e-01
        28         1       -1.487043e+00
        29         1       -7.044484e-02
        30         1        9.924924e-01
        31         1       -1.012191e+00
        32         1        2.008532e+00
        33         1        4.141622e-01
        34         1        1.712301e+00
        35         1       -1.844060e-01
        36         1       -9.819942e-01
        37         1       -2.469640e-01
        38         1        1.670355e-01
        39         1        5.220993e-01
        40         1       -5.629453e-01
        41         1        8.876192e-01
        42         1        6.843782e-01
        43         1        6.114209e-01
        44         1        1.686529e+00
        45         1        8.285979e-01
        46         1       -4.891487e-02
        47         1        2.912067e-01
        48         1        2.150544e+00
        49         1       -1.067899e+00
        50         1       -1.673411e-01
        51         1        3.359566e+00
        52         1       -8.730416e-01
        53         1       -4.261116e-01
        54         1       -1.102926e-02
        55         1       -7.887582e-01
        56         1       -2.585383e-01
        57         1       -2.245490e-01
        58         1       -2.369354e-01
        59         1        6.938109e-01
        60         1       -1.117207e+00
        61         1       -1.292899e+00
        62         1       -1.159504e+00
        63         1       -9.187436e-01
        64         1        4.604204e-01
        65         1        1.246760e-01
        66         1       -1.297628e-01
        67         1        1.014743e+00
        68         1        1.438824e+00
        69         1        1.357150e+00
        70         1        7.069020e-01
        71         1       -3.349995e-01
        72         1        1.214466e-01
        73         1        4.961000e-01
        74         1        7.925107e-01
        75         1        3.945860e-01
        76         1        9.479015e-01
        77         1        1.009299e-03
        78         1       -8.488891e-01
        79         1        1.387562e+00
        80         1        5.605628e-01
        81         1        7.478898e-01
        82         1       -1.570917e+00
        83         1        2.481120e-01
        84         1        7.977580e-01
        85         1       -6.917890e-01
        86         1        2.158762e+00
        87         1       -5.884164e-01
        88         1        7.786421e-01
        89         1        1.484102e+00
        90         1       -1.874498e-02
        91         1        1.171339e+00
        92         1        1.151509e+00
        93         1       -4.125754e-01
        94         1        8.303033e-01
        95         1       -8.346952e-01
        96         1       -8.641331e-02
        97         1       -3.980655e-01
        98         1       -9.716256e-03
        99         1        4.073923e-01
       100         1       -1.651466e-01
         1         2       -8.953883e-01
         2         2        1.124674e+00
         3         2       -7.321592e-01
         4         2        1.127881e+00
         5         2        1.377886e+00
         6         2        1.185884e+00
         7         2        2.420755e+00
         8         2        1.530849e+00
         9         2        3.282318e-02
        10         2        1.427608e+00
        11         2       -4.438080e-01
        12         2       -4.705527e-01
        13         2       -1.428827e+00
        14         2       -5.046435e-01
        15         2        1.296294e+00
        16         2       -1.564279e+00
        17         2        9.313857e-01
        18         2       -1.160510e+00
        19         2        1.081424e+00
        20         2        1.478413e+00
        21         2        1.595427e-01
        22         2       -1.745773e+00
        23         2        7.665741e-01
        24         2       -1.185229e+00
        25         2       -3.747261e-01
        26         2       -5.436747e-01
        27         2        8.029754e-01
        28         2       -6.661734e-01
        29         2       -1.594848e+00
        30         2       -7.456265e-01
        31         2        1.762855e+00
        32         2       -2.640285e+00
        33         2       -1.106998e+00
        34         2        1.342504e+00
        35         2       -7.897267e-01
        36         2        5.387683e-01
        37         2       -2.289012e-01
        38         2        1.330110e+00
        39         2        3.355952e-02
        40         2        1.499613e-01
        41         2       -9.683680e-01
        42         2       -1.122738e-01
        43         2       -7.127112e-01
        44         2       -2.155232e-03
        45         2       -9.050707e-01
        46         2       -1.562407e+00
        47         2       -1.802717e-01
        48         2        1.520983e+00
        49         2       -3.953126e-01
        50         2       -3.660699e-01
        51         2       -7.408373e-01
        52         2        8.413000e-01
        53         2        1.241753e+00
        54         2       -8.633060e-01
        55         2       -5.811328e-01
        56         2        8.697995e-01
        57         2       -1.124095e+00
        58         2        3.568718e-01
        59         2        9.392239e-01
        60         2       -3.849774e-01
        61         2        1.406865e+00
        62         2        1.279753e+00
        63         2       -1.117359e+00
        64         2       -1.120078e+00
        65         2        4.221154e-01
        66         2        1.416391e+00
        67         2        9.318826e-01
        68         2        2.717676e-01
        69         2        9.089246e-01
        70         2       -1.194624e-02
        71         2        2.219181e-01
        72         2       -5.601196e-01
        73         2        1.540982e+00
        74         2        3.749826e-01
        75         2        7.650110e-01
        76         2        3.924392e-01
        77         2        1.238445e-01
        78         2        8.876165e-01
        79         2       -8.573227e-01
        80         2       -1.395525e+00
        81         2        1.778441e+00
        82         2        7.621462e-01
        83         2       -4.047267e-01
        84         2        9.131766e-01
        85         2       -6.994285e-02
        86         2        1.935055e+00
        87         2       -1.491802e+00
        88         2        7.695928e-01
        89         2        2.858853e-01
        90         2        9.695576e-01
        91         2        1.078789e+00
        92         2       -7.402935e-01
        93         2       -2.052089e+00
        94         2        4.426374e-01
        95         2        3.075592e-01
        96         2        1.227994e+00
        97         2        7.647256e-01
        98         2       -3.418333e-01
        99         2       -1.752152e-01
       100         2        5.188431e-01
         1         3       -3.430216e-01
         2         3        8.532082e-01
         3         3       -1.270170e+00
         4         3       -1.587069e-01
         5         3        1.688921e-01
         6         3        3.365141e-01
         7         3        3.289105e-02
         8         3       -5.367423e-01
         9         3        4.951515e-01
        10         3        1.346812e+00
        11         3        1.414253e+00
        12         3       -1.495861e+00
        13         3       -1.540756e+00
        14         3        8.173591e-01
        15         3        6.665545e-01
        16         3       -3.840303e-01
        17         3       -8.964805e-01
        18         3       -9.440633e-01
        19         3        7.512965e-03
        20         3       -6.487409e-02
        21         3       -4.021660e-01
        22         3        1.073178e+00
        23         3       -7.567303e-01
        24         3        1.233977e+00
        25         3        2.447523e+00
        26         3        1.613913e+00
        27         3       -1.455534e+00
        28         3        1.380422e-01
        29         3        4.940014e-01
        30         3        9.387252e-01
        31         3       -1.382611e+00
        32         3       -1.915799e-01
        33         3       -9.179489e-01
        34         3       -1.475918e+00
        35         3        7.107683e-01
        36         3        5.987689e-01
        37         3       -8.438601e-01
        38         3       -1.087272e+00
        39         3        3.444376e-01
        40         3       -6.067048e-01
        41         3       -7.547752e-03
        42         3        8.862704e-01
        43         3       -1.548654e+00
        44         3        2.797226e-01
        45         3       -3.423430e-01
        46         3        2.439423e-01
        47         3        5.898903e-01
        48         3        4.394642e-01
        49         3        8.407080e-01
        50         3       -4.619248e-01
        51         3        1.050347e+00
        52         3       -1.516336e-01
        53         3        1.848051e+00
        54         3        7.281279e-01
        55         3       -1.136163e+00
        56         3        2.030815e+00
        57         3       -1.412537e+00
        58         3       -7.162390e-02
        59         3       -9.310250e-02
        60         3       -1.695089e-01
        61         3       -5.697574e-01
        62         3       -6.206124e-01
        63         3        5.927839e-01
        64         3       -2.674634e-01
        65         3       -2.422920e-01
        66         3        1.104622e+00
        67         3        1.044023e+00
        68         3       -3.065260e-01
        69         3        9.296785e-01
        70         3        1.885841e-01
        71         3        1.190612e+00
        72         3       -9.410164e-01
        73         3       -6.490209e-01
        74         3       -2.938655e-01
        75         3       -1.747558e-01
        76         3        2.370940e-01
        77         3       -1.068225e+00
        78         3        5.259922e-01
        79         3       -2.083059e+00
        80         3        2.289864e-01
        81         3       -6.342566e-02
        82         3       -1.594997e+00
        83         3        1.515027e+00
        84         3       -3.763867e-01
        85         3        8.281536e-01
        86         3        8.760574e-02
        87         3        6.328690e-01
        88         3       -1.383667e+00
        89         3       -8.622905e-01
        90         3       -7.832803e-01
        91         3       -1.892878e-01
        92         3        2.724265e-01
        93         3       -1.392894e+00
        94         3        1.852994e+00
        95         3        1.750946e+00
        96         3       -5.255169e-01
        97         3        8.018651e-01
        98         3        1.315496e+00
        99         3       -1.427758e+00
       100         3       -9.264362e-02
         1         4       -1.594966e+00
         2         4        9.951221e-02
         3         4        8.880343e-01
         4         4       -2.784478e-01
         5         4        1.066014e+00
         6         4        8.150954e-01
         7         4        1.524007e-01
         8         4       -2.460136e-01
         9         4       -6.480579e-01
        10         4       -1.468745e+00
        11         4        5.571627e-01
        12         4       -2.375949e+00
        13         4       -6.525630e-01
        14         4        7.852333e-02
        15         4        1.959392e+00
        16         4       -6.839852e-02
        17         4        6.045792e-01
        18         4        7.237596e-01
        19         4       -4.941197e-01
        20         4       -1.031841e+00
        21         4       -1.780530e+00
        22         4       -4.736153e-01
        23         4       -3.741968e-01
        24         4        2.529188e+00
        25         4        1.802246e+00
        26         4        7.790786e-01
        27         4        4.824667e-01
        28         4        2.328417e-01
        29         4       -1.606994e-01
        30         4        1.424319e+00
        31         4       -1.583109e-01
        32         4        5.718132e-01
        33         4       -5.001710e-01
        34         4        2.943253e-01
        35         4       -1.811243e+00
        36         4       -1.058410e+00
        37         4        3.381918e-01
        38         4        4.870879e-01
        39         4       -1.036489e+00
        40         4        1.660660e+00
        41         4        1.436103e-01
        42         4       -3.148815e-01
        43         4        1.275290e+00
        44         4        1.373777e+00
        45         4       -4.749766e-01
        46         4       -5.940577e-01
        47         4       -1.800854e+00
        48         4       -1.581828e-01
        49         4       -3.975517e-01
        50         4        8.746394e-02
        51         4        1.401785e+00
        52         4        1.098071e-01
        53         4       -1.321756e+00
        54         4       -1.779896e-01
        55         4       -9.902483e-02
        56         4        8.562419e-01
        57         4        1.563352e+00
        58         4        1.221720e+00
        59         4        8.168852e-01
        60         4       -1.475856e-01
        61         4        9.011741e-01
        62         4        4.693660e-01
        63         4        9.495168e-01
        64         4        8.885066e-01
        65         4       -5.037315e-01
        66         4        1.510226e+00
        67         4        1.430825e+00
        68         4       -3.119141e-01
        69         4        1.358358e-01
        70         4       -8.365784e-02
        71         4        1.418214e+00
        72         4       -7.104398e-01
        73         4       -1.576487e-02
        74         4       -7.570207e-01
        75         4       -4.902151e-03
        76         4        2.079363e+00
        77         4        8.498292e-01
        78         4       -5.451802e-01
        79         4       -8.013893e-01
        80         4        5.529609e-01
        81         4       -1.124693e+00
        82         4       -4.536726e-01
        83         4       -8.698067e-01
        84         4        2.554581e-01
        85         4       -1.843201e+00
        86         4        5.458820e-02
        87         4        1.397870e+00
        88         4        8.041839e-01
        89         4       -9.489219e-01
        90         4        4.004052e-01
        91         4       -1.033459e+00
        92         4       -2.350746e+00
        93         4        1.748870e+00
        94         4        1.806361e+00
        95         4        3.672532e-01
        96         4       -1.842291e+00
        97         4       -1.227219e+00
        98         4       -1.434648e-01
        99         4        1.813075e+00
       100         4        1.417883e+00
         1         5        1.481398e+00
         2         5        6.881154e-01
         3         5        2.549747e+00
         4         5        8.952088e-01
         5         5       -7.229222e-02
         6         5       -8.112263e-01
         7         5       -3.402149e-01
         8         5        4.671207e-03
         9         5       -4.075453e-01
        10         5       -1.063726e-01
        11         5       -7.205659e-01
        12         5       -2.159975e-01
        13         5        6.545257e-01
        14         5       -1.071674e-01
        15         5        4.407258e-01
        16         5       -4.809108e-02
        17         5       -9.996804e-01
        18         5        9.104785e-01
        19         5        4.327570e-01
        20         5       -1.750194e+00
        21         5       -5.769143e-01
        22         5        5.970543e-01
        23         5        5.864280e-01
        24         5        8.358021e-01
        25         5        1.125804e+00
        26         5       -6.842411e-02
        27         5        7.840190e-01
        28         5       -1.303395e+00
        29         5       -1.366325e+00
        30         5       -4.050342e-01
        31         5        1.360913e-01
        32         5       -9.484202e-01
        33         5       -1.439238e+00
        34         5        1.122474e+00
        35         5        1.205798e+00
        36         5       -8.763377e-01
        37         5       -3.436187e-01
        38         5        2.158463e-01
        39         5        2.936777e-02
        40         5       -4.352940e-01
        41         5        1.613585e+00
        42         5       -1.409888e+00
        43         5       -1.926019e-01
        44         5       -5.370340e-01
        45         5       -7.725886e-01
        46         5        1.049052e+00
        47         5       -3.918083e-01
        48         5       -7.654146e-01
        49         5        3.465452e-01
        50         5       -1.416029e+00
        51         5        6.649682e-01
        52         5        1.133003e+00
        53         5       -9.673235e-02
        54         5        5.185598e-01
        55         5       -5.764711e-02
        56         5        2.467500e-01
        57         5       -4.970135e-01
        58         5       -2.327764e+00
        59         5        3.139892e-01
        60         5       -1.849367e+00
        61         5       -1.704914e+00
        62         5       -8.168713e-01
        63         5       -4.553501e-01
        64         5        9.047117e-01
        65         5       -9.353837e-01
        66         5       -2.004452e-01
        67         5        1.546021e-01
        68         5       -7.003241e-01
        69         5       -4.337056e-01
        70         5        7.884004e-01
        71         5       -5.160858e-03
        72         5        8.779855e-01
        73         5       -1.966682e-01
        74         5        1.221335e+00
        75         5       -9.683473e-01
        76         5       -5.887443e-01
        77         5        4.801620e-01
        78         5        1.466397e+00
        79         5        1.636508e+00
        80         5       -1.626083e+00
        81         5        8.521060e-01
        82         5       -1.285064e+00
        83         5       -9.010959e-02
        84         5       -6.642719e-01
        85         5       -1.375325e+00
        86         5        7.760239e-01
        87         5       -6.953887e-02
        88         5        9.303522e-02
        89         5       -8.722707e-01
        90         5       -1.564735e+00
        91         5        2.703782e-01
        92         5       -2.084968e-01
        93         5       -8.119038e-01
        94         5        9.695688e-01
        95         5        2.529405e-01
        96         5       -3.675108e-01
        97         5        2.579699e-01
        98         5        1.047143e+00
        99         5       -6.721417e-01
       100         5        3.096935e-01
;

param theta:=
    1       -5.920135e-02
    2       -7.462210e-01
    3        8.118783e-01
    4        7.514373e-01
    5       -9.214249e-01
;
param X_true:=
    1       -2.125821e+00
    2       -6.819220e-01
    3       -2.008399e+00
    4       -2.097945e+00
    5       -7.705460e-02
    6        7.081763e-01
    7       -1.333573e+00
    8       -1.746872e+00
    9        2.368372e-01
   10       -8.213610e-01
   11        2.593737e+00
   12       -2.496973e+00
   13       -1.341821e+00
   14        1.277973e+00
   15        5.308193e-01
   16        7.822367e-01
   17       -3.559714e-02
   18       -2.539533e-01
   19       -1.623660e+00
   20       -2.910849e-01
   21       -1.332221e+00
   22        1.194385e+00
   23       -2.072460e+00
   24        3.020655e+00
   25        2.598612e+00
   26        2.314400e+00
   27       -2.126886e+00
   28        2.073168e+00
   29        2.733558e+00
   30        2.703271e+00
   31       -2.622427e+00
   32        2.999368e+00
   33        1.006586e+00
   34       -3.114550e+00
   35       -1.294803e+00
   36        1.543735e-01
   37        7.106859e-02
   38       -1.718047e+00
   39       -5.822269e-01
   40        1.077825e+00
   41       -7.149430e-01
   42        1.825301e+00
   43        3.740933e-01
   44        1.656008e+00
   45        7.033550e-01
   46       -4.617164e-02
   47       -3.960050e-01
   48       -3.191054e-01
   49        4.227136e-01
   50        1.278537e+00
   51        1.647326e+00
   52       -1.660682e+00
   53       -3.050893e-01
   54        6.244592e-01
   55       -4.633701e-01
   56        1.431068e+00
   57        1.338031e+00
   58        2.752478e+00
   59       -4.930105e-01
   60        1.808949e+00
   61        8.122622e-01
   62       -2.848112e-01
   63        2.502529e+00
   64        4.254536e-01
   65       -3.572085e-02
   66        1.167096e+00
   67        1.024876e+00
   68       -1.259286e-01
   69        4.978813e-01
   70       -6.691431e-01
   71        1.891319e+00
   72       -1.696056e+00
   73       -1.536840e+00
   74       -2.259543e+00
   75        1.524679e-01
   76        1.948522e+00
   77       -7.635836e-01
   78       -1.945905e+00
   79       -3.243697e+00
   80        3.107923e+00
   81       -3.053168e+00
   82       -9.274891e-01
   83        9.467686e-01
   84       -2.302027e-01
   85        6.477167e-01
   86       -2.174683e+00
   87        2.776348e+00
   88       -1.225183e+00
   89       -9.105928e-01
   90        3.843425e-01
   91       -2.053752e+00
   92       -8.688950e-01
   93        2.487151e+00
   94        1.588928e+00
   95        1.284365e+00
   96       -2.383627e+00
   97       -1.055950e+00
   98        2.510130e-01
   99        9.292055e-01
  100        3.274806e-01
;
param X:=
    1       -2.125821e+00
    2       -6.667531e-01
    3       -2.008399e+00
    4       -1.007894e+00
    5       -7.705460e-02
    6        7.081763e-01
    7       -1.049617e-01
    8       -1.746872e+00
    9       -9.200639e-01
   10       -8.213610e-01
   11       -2.120754e-01
   12       -2.496973e+00
   13       -1.341821e+00
   14       -3.401205e-01
   15        1.761257e-01
   16        1.176688e+00
   17       -3.559714e-02
   18        6.744867e-02
   19       -1.623660e+00
   20       -7.211945e-01
   21        5.537949e-01
   22       -4.406220e-01
   23       -1.235152e+00
   24       -1.096854e+00
   25       -7.036502e-01
   26        2.314400e+00
   27        1.246301e+00
   28        2.229936e-01
   29        1.241911e-02
   30       -3.631031e-01
   31       -1.087722e+00
   32        1.225249e+00
   33       -4.984126e-01
   34        4.317522e-01
   35       -6.355130e-01
   36        9.090496e-01
   37       -1.423464e+00
   38        5.290026e-02
   39       -5.822269e-01
   40        1.077825e+00
   41       -7.169222e-01
   42        1.825301e+00
   43       -1.425964e-01
   44       -7.802317e-02
   45        1.954225e+00
   46       -4.617164e-02
   47       -3.960050e-01
   48       -1.989882e+00
   49       -1.471109e+00
   50        4.906313e-01
   51        1.647326e+00
   52       -1.187802e+00
   53        1.454224e+00
   54        6.244592e-01
   55       -8.056652e-01
   56        4.240092e-02
   57       -3.526668e-01
   58       -3.435058e-01
   59       -8.662883e-01
   60        6.156911e-01
   61        3.629912e-01
   62       -3.158163e-01
   63        1.181035e-01
   64        1.792127e+00
   65        4.753459e-01
   66       -2.451381e+00
   67       -7.152207e-01
   68       -1.182047e+00
   69        1.398179e-02
   70        3.120154e-01
   71       -1.856780e+00
   72       -7.021795e-01
   73        4.514591e-01
   74       -4.707581e-01
   75        1.524679e-01
   76        1.986673e-02
   77       -7.635836e-01
   78        4.009449e-01
   79       -5.168895e-01
   80        2.399998e-02
   81       -1.816717e+00
   82       -5.867716e-01
   83        8.150016e-01
   84       -1.627107e-01
   85        6.477167e-01
   86       -2.174683e+00
   87        2.776348e+00
   88       -2.176982e-02
   89        7.222992e-01
   90        3.843425e-01
   91       -2.716747e+00
   92       -3.558791e-01
   93       -9.126524e-01
   94        1.588928e+00
   95        1.434847e+00
   96       -2.383627e+00
   97        8.589181e-01
   98        2.510130e-01
   99        9.292055e-01
  100       -5.547051e-02
;
param outliervec:=
    1    0
    2    1
    3    0
    4    1
    5    0
    6    0
    7    1
    8    0
    9    1
   10    0
   11    1
   12    0
   13    0
   14    1
   15    1
   16    1
   17    0
   18    1
   19    0
   20    1
   21    1
   22    1
   23    1
   24    1
   25    1
   26    0
   27    1
   28    1
   29    1
   30    1
   31    1
   32    1
   33    1
   34    1
   35    1
   36    1
   37    1
   38    1
   39    0
   40    0
   41    1
   42    0
   43    1
   44    1
   45    1
   46    0
   47    0
   48    1
   49    1
   50    1
   51    0
   52    1
   53    1
   54    0
   55    1
   56    1
   57    1
   58    1
   59    1
   60    1
   61    1
   62    1
   63    1
   64    1
   65    1
   66    1
   67    1
   68    1
   69    1
   70    1
   71    1
   72    1
   73    1
   74    1
   75    0
   76    1
   77    0
   78    1
   79    1
   80    1
   81    1
   82    1
   83    1
   84    1
   85    0
   86    0
   87    0
   88    1
   89    1
   90    0
   91    1
   92    1
   93    1
   94    0
   95    1
   96    0
   97    1
   98    0
   99    0
  100    1
;